; benchmark generated from python API
(set-info :status unknown)
(declare-fun x_month () (_ BitVec 32))
(declare-fun x_year () (_ BitVec 32))
(declare-fun x_day () (_ BitVec 32))
(declare-fun y_month () (_ BitVec 32))
(declare-fun y_year () (_ BitVec 32))
(declare-fun y_day () (_ BitVec 32))
(assert
 (let (($x5337 (or (= (_ bv4 32) x_month) (= (_ bv6 32) x_month) (= (_ bv9 32) x_month) (= (_ bv11 32) x_month))))
 (let (($x5490 (and (= (_ bv0 32) (bvsmod x_year (_ bv4 32))) (and (distinct (_ bv0 32) (bvsmod x_year (_ bv100 32))) true))))
 (let ((?x1329 (ite (= (_ bv2 32) x_month) (ite (or $x5490 (= (_ bv0 32) (bvsmod x_year (_ bv400 32)))) (_ bv29 32) (_ bv28 32)) (ite $x5337 (_ bv30 32) (_ bv31 32)))))
 (let (($x4339 (bvsle x_day ?x1329)))
 (let (($x4404 (bvsle (_ bv1 32) x_day)))
 (let (($x3154 (bvsle (_ bv1 32) x_month)))
 (let (($x2810 (bvsge (_ bv12 32) x_month)))
 (let (($x3625 (bvsle (_ bv1901 32) x_year)))
 (or (and (= (_ bv1900 32) x_year) (bvsle (_ bv3 32) x_month) $x2810 $x4404 $x4339) (and $x3625 (bvsge (_ bv2099 32) x_year) $x3154 $x2810 $x4404 $x4339) (and (= (_ bv2100 32) x_year) $x3154 (bvsge (_ bv2 32) x_month) $x4404 $x4339)))))))))))
(assert
 (let (($x2472 (or (= (_ bv4 32) y_month) (= (_ bv6 32) y_month) (= (_ bv9 32) y_month) (= (_ bv11 32) y_month))))
 (let (($x5539 (and (= (_ bv0 32) (bvsmod y_year (_ bv4 32))) (and (distinct (_ bv0 32) (bvsmod y_year (_ bv100 32))) true))))
 (let (($x3450 (= (_ bv2 32) y_month)))
 (let ((?x5491 (ite $x3450 (ite (or $x5539 (= (_ bv0 32) (bvsmod y_year (_ bv400 32)))) (_ bv29 32) (_ bv28 32)) (ite $x2472 (_ bv30 32) (_ bv31 32)))))
 (let (($x1526 (bvsle y_day ?x5491)))
 (let (($x1783 (bvsle (_ bv1 32) y_day)))
 (let (($x5444 (bvsle (_ bv1 32) y_month)))
 (let (($x791 (bvsge (_ bv12 32) y_month)))
 (let (($x5544 (bvsle (_ bv1901 32) y_year)))
 (or (and (= (_ bv1900 32) y_year) (bvsle (_ bv3 32) y_month) $x791 $x1783 $x1526) (and $x5544 (bvsge (_ bv2099 32) y_year) $x5444 $x791 $x1783 $x1526) (and (= (_ bv2100 32) y_year) $x5444 (bvsge (_ bv2 32) y_month) $x1783 $x1526))))))))))))
(assert
 (and (= (_ bv2022 32) x_year) (= (_ bv1 32) x_month) (= (_ bv15 32) x_day)))
(assert
 (let ((?x4126 (bvadd x_month (bvadd (bvmul (_ bv0 32) (_ bv12 32)) (_ bv13 32)))))
 (let ((?x3519 (bvsub (ite (bvuge ?x4126 (_ bv2147483648 32)) (bvsub ?x4126 (_ bv0 32)) ?x4126) (_ bv1 32))))
 (let ((?x4405 (bvsmod ?x3519 (_ bv12 32))))
 (let ((?x4753 (bvadd ?x4405 (_ bv1 32))))
 (let (($x1602 (= (_ bv11 32) ?x4753)))
 (let (($x3647 (= (_ bv9 32) ?x4753)))
 (let (($x4004 (= (_ bv6 32) ?x4753)))
 (let (($x2545 (= (_ bv4 32) ?x4753)))
 (let ((?x2101 (bvsdiv ?x3519 (_ bv12 32))))
 (let ((?x4102 (ite (and (bvuge ?x3519 (_ bv2147483648 32)) (and (distinct (_ bv0 32) ?x4405) true)) (bvsub ?x2101 (_ bv1 32)) ?x2101)))
 (let ((?x3144 (bvadd x_year ?x4102)))
 (let (($x4893 (or (and (= (_ bv0 32) (bvsmod ?x3144 (_ bv4 32))) (and (distinct (_ bv0 32) (bvsmod ?x3144 (_ bv100 32))) true)) (= (_ bv0 32) (bvsmod ?x3144 (_ bv400 32))))))
 (let (($x3241 (= (_ bv2 32) ?x4753)))
 (let ((?x5685 (ite $x3241 (ite $x4893 (_ bv29 32) (_ bv28 32)) (ite (or $x2545 $x4004 $x3647 $x1602) (_ bv30 32) (_ bv31 32)))))
 (let ((?x6061 (ite (bvsgt (_ bv1 32) x_day) (_ bv1 32) (ite (bvsgt x_day ?x5685) ?x5685 x_day))))
 (let ((?x1468 (ite (bvsgt (_ bv1 32) ?x6061) (_ bv1 32) (ite (bvsgt ?x6061 ?x5685) ?x5685 ?x6061))))
 (let ((?x1488 (ite $x3241 (ite $x4893 (_ bv31 32) (_ bv31 32)) (ite (= (_ bv1 32) ?x4753) (ite $x4893 (_ bv0 32) (_ bv0 32)) (_ bv0 32)))))
 (let ((?x3946 (ite $x2545 (ite $x4893 (_ bv91 32) (_ bv90 32)) (ite (= (_ bv3 32) ?x4753) (ite $x4893 (_ bv60 32) (_ bv59 32)) ?x1488))))
 (let ((?x2773 (ite $x4004 (ite $x4893 (_ bv152 32) (_ bv151 32)) (ite (= (_ bv5 32) ?x4753) (ite $x4893 (_ bv121 32) (_ bv120 32)) ?x3946))))
 (let ((?x5711 (ite (= (_ bv8 32) ?x4753) (ite $x4893 (_ bv213 32) (_ bv212 32)) (ite (= (_ bv7 32) ?x4753) (ite $x4893 (_ bv182 32) (_ bv181 32)) ?x2773))))
 (let ((?x5269 (ite (= (_ bv10 32) ?x4753) (ite $x4893 (_ bv274 32) (_ bv273 32)) (ite $x3647 (ite $x4893 (_ bv244 32) (_ bv243 32)) ?x5711))))
 (let ((?x5856 (ite (= (_ bv12 32) ?x4753) (ite $x4893 (_ bv335 32) (_ bv334 32)) (ite $x1602 (ite $x4893 (_ bv305 32) (_ bv304 32)) ?x5269))))
 (let ((?x2767 (bvadd (bvmul (_ bv365 32) (bvsub ?x3144 (_ bv1 32))) (bvsdiv (bvsub ?x3144 (_ bv1 32)) (_ bv4 32)))))
 (let ((?x3585 (bvadd (bvsub ?x2767 (bvsdiv (bvsub ?x3144 (_ bv1 32)) (_ bv100 32))) (bvsdiv (bvsub ?x3144 (_ bv1 32)) (_ bv400 32)))))
 (let ((?x3710 (bvadd (bvadd (bvsub (bvadd (bvadd ?x3585 ?x5856) (bvsub ?x1468 (_ bv1 32))) (_ bv730179 32)) (_ bv40 32)) (_ bv730179 32))))
 (let ((?x1636 (bvsmod ?x3710 (_ bv146097 32))))
 (let ((?x4924 (bvsdiv ?x1636 (_ bv36524 32))))
 (let ((?x4710 (ite (bvsle (_ bv4 32) ?x4924) (_ bv3 32) ?x4924)))
 (let ((?x5240 (bvsub ?x1636 (bvmul ?x4710 (_ bv36524 32)))))
 (let ((?x3915 (bvsmod ?x5240 (_ bv1461 32))))
 (let ((?x3134 (bvsdiv ?x3915 (_ bv365 32))))
 (let ((?x2802 (ite (bvsle (_ bv4 32) ?x3134) (_ bv3 32) ?x3134)))
 (let ((?x3021 (bvadd (bvadd (bvmul (bvsdiv ?x3710 (_ bv146097 32)) (_ bv400 32)) (bvmul ?x4710 (_ bv100 32))) (bvmul (bvsdiv ?x5240 (_ bv1461 32)) (_ bv4 32)))))
 (let ((?x2127 (bvadd (bvadd ?x3021 ?x2802) (_ bv1 32))))
 (let (($x1974 (or (and (= (_ bv0 32) (bvsmod ?x2127 (_ bv4 32))) (and (distinct (_ bv0 32) (bvsmod ?x2127 (_ bv100 32))) true)) (= (_ bv0 32) (bvsmod ?x2127 (_ bv400 32))))))
 (let ((?x2277 (bvsub ?x3915 (bvmul ?x2802 (_ bv365 32)))))
 (let ((?x4423 (ite $x1974 (_ bv31 32) (_ bv31 32))))
 (let (($x2843 (bvsge ?x2277 ?x4423)))
 (let ((?x2662 (ite $x2843 (bvadd (bvsub ?x2277 ?x4423) (_ bv1 32)) (bvadd (bvsub ?x2277 (ite $x1974 (_ bv0 32) (_ bv0 32))) (_ bv1 32)))))
 (let ((?x4382 (ite $x1974 (_ bv60 32) (_ bv59 32))))
 (let (($x5525 (bvsge ?x2277 ?x4382)))
 (let ((?x5580 (ite $x1974 (_ bv91 32) (_ bv90 32))))
 (let (($x5946 (bvsge ?x2277 ?x5580)))
 (let ((?x4300 (ite $x5946 (bvadd (bvsub ?x2277 ?x5580) (_ bv1 32)) (ite $x5525 (bvadd (bvsub ?x2277 ?x4382) (_ bv1 32)) ?x2662))))
 (let ((?x5325 (ite $x1974 (_ bv121 32) (_ bv120 32))))
 (let (($x5934 (bvsge ?x2277 ?x5325)))
 (let ((?x5372 (ite $x1974 (_ bv152 32) (_ bv151 32))))
 (let (($x5927 (bvsge ?x2277 ?x5372)))
 (let ((?x1911 (ite $x5927 (bvadd (bvsub ?x2277 ?x5372) (_ bv1 32)) (ite $x5934 (bvadd (bvsub ?x2277 ?x5325) (_ bv1 32)) ?x4300))))
 (let ((?x5155 (ite $x1974 (_ bv182 32) (_ bv181 32))))
 (let (($x5323 (bvsge ?x2277 ?x5155)))
 (let ((?x4678 (ite $x1974 (_ bv213 32) (_ bv212 32))))
 (let (($x1752 (bvsge ?x2277 ?x4678)))
 (let ((?x2817 (ite $x1752 (bvadd (bvsub ?x2277 ?x4678) (_ bv1 32)) (ite $x5323 (bvadd (bvsub ?x2277 ?x5155) (_ bv1 32)) ?x1911))))
 (let ((?x1517 (ite $x1974 (_ bv244 32) (_ bv243 32))))
 (let (($x2842 (bvsge ?x2277 ?x1517)))
 (let ((?x1540 (ite $x1974 (_ bv274 32) (_ bv273 32))))
 (let (($x5947 (bvsge ?x2277 ?x1540)))
 (let ((?x2263 (ite $x5947 (bvadd (bvsub ?x2277 ?x1540) (_ bv1 32)) (ite $x2842 (bvadd (bvsub ?x2277 ?x1517) (_ bv1 32)) ?x2817))))
 (let ((?x4457 (ite $x1974 (_ bv305 32) (_ bv304 32))))
 (let (($x5915 (bvsge ?x2277 ?x4457)))
 (let ((?x5144 (ite $x1974 (_ bv335 32) (_ bv334 32))))
 (let (($x5891 (bvsge ?x2277 ?x5144)))
 (let ((?x4011 (ite $x5891 (bvadd (bvsub ?x2277 ?x5144) (_ bv1 32)) (ite $x5915 (bvadd (bvsub ?x2277 ?x4457) (_ bv1 32)) ?x2263))))
 (let (($x2979 (= (_ bv0 32) (_ bv40 32))))
 (let ((?x5809 (ite $x5927 (_ bv6 32) (ite $x5934 (_ bv5 32) (ite $x5946 (_ bv4 32) (ite $x5525 (_ bv3 32) (ite $x2843 (_ bv2 32) (_ bv1 32))))))))
 (let ((?x5909 (ite $x5915 (_ bv11 32) (ite $x5947 (_ bv10 32) (ite $x2842 (_ bv9 32) (ite $x1752 (_ bv8 32) (ite $x5323 (_ bv7 32) ?x5809)))))))
 (let ((?x2230 (ite $x5891 (_ bv12 32) ?x5909)))
 (and (= y_year (ite $x2979 ?x3144 ?x2127)) (= y_month (ite $x2979 ?x4753 ?x2230)) (= y_day (ite $x2979 ?x1468 ?x4011))))))))))))))))))))))))))))))))))))))))))))))))))))))))))))))))))))))))
(assert
 (not (and (= (_ bv2023 32) y_year) (= (_ bv2 32) y_month) (= (_ bv24 32) y_day))))
(check-sat)
